\ This file has been generated by DOcplex
\ ENCODING=ISO-8859-1
\Problem name: 2generals problem

Maximize
 obj: x5
Subject To
 c1: x5 + 6 a0_0 + 15 a0_1 <= 0
 c2: x5 + 15 a0_0 + 12.500000000000 a0_1 <= 0
 c3: x5 - 6 a1_0 - 15 a1_1 <= 0
 c4: x5 - 15 a1_0 - 12.500000000000 a1_1 <= 0
 c5: a0_0 + a0_1 = 1
 c6: a1_0 + a1_1 = 1

Bounds
       a0_0 <= 1
       a0_1 <= 1
 0 <= a1_0 <= 1
 0 <= a1_1 <= 1
 -1000 <= x5 <= 100000

Binaries
 a1_0 a1_1
End
